; benchmark generated from python API
(set-info :status unknown)
(declare-fun x_day () Int)
(declare-fun x_month () Int)
(declare-fun x_year () Int)
(declare-fun x_epoch () Int)
(declare-fun x_shift_period_905577_day () Int)
(declare-fun x_shift_period_905577_month () Int)
(declare-fun x_shift_period_905577_year () Int)
(declare-fun x_shift_period_905577_epoch () Int)
(assert
 (let (($x568 (> x_month 2)))
 (let (($x672 (= (mod x_year 4) 0)))
 (let (($x356 (= (mod x_year 100) 0)))
 (let (($x938 (= (mod x_year 400) 0)))
 (let (($x1010 (ite $x938 true (ite $x356 false $x672))))
 (let (($x652 (= x_month 9)))
 (let ((?x567 (ite $x652 243 (ite (= x_month 10) 273 (ite (= x_month 11) 304 334)))))
 (let (($x395 (= x_month 6)))
 (let ((?x112 (ite $x395 151 (ite (= x_month 7) 181 (ite (= x_month 8) 212 ?x567)))))
 (let (($x1615 (= x_month 5)))
 (let (($x788 (= x_month 4)))
 (let (($x231 (= x_month 3)))
 (let (($x620 (= x_month 2)))
 (let ((?x315 (ite $x620 31 (ite $x231 59 (ite $x788 90 (ite $x1615 120 ?x112))))))
 (let (($x503 (= x_month 1)))
 (let ((?x943 (ite $x503 0 ?x315)))
 (let ((?x1268 (- (+ (* 365 (- x_year 1)) (div (- x_year 1) 4)) (div (- x_year 1) 100))))
 (let ((?x328 (+ (+ ?x1268 (div (- x_year 1) 400)) (+ ?x943 (ite (and $x1010 $x568) 1 0)))))
 (let (($x182 (<= x_year 2400)))
 (let (($x1406 (>= x_year 1600)))
 (let ((?x564 (ite (or $x788 $x395 $x652 (= x_month 11)) 30 31)))
 (let ((?x889 (ite $x620 (ite $x1010 29 28) ?x564)))
 (let (($x1426 (>= x_day 1)))
 (let (($x150 (<= x_month 12)))
 (let (($x1627 (>= x_month 1)))
 (and $x1627 $x150 $x1426 (<= x_day ?x889) $x1406 $x182 (= x_epoch (+ ?x328 (- x_day 1))))))))))))))))))))))))))))))
(assert
 (let (($x503 (= x_month 1)))
 (let (($x2324 (= x_year 2023)))
 (let (($x3666 (and $x2324 $x503 (>= x_day 31))))
 (let (($x3728 (> x_year 2023)))
 (or $x3728 (and $x2324 (> x_month 1)) $x3666))))))
(assert
 (let (($x3821 (= (mod x_shift_period_905577_year 4) 0)))
 (let (($x3050 (= (mod x_shift_period_905577_year 100) 0)))
 (let (($x1621 (= (mod x_shift_period_905577_year 400) 0)))
 (let (($x828 (ite $x1621 true (ite $x3050 false $x3821))))
 (let ((?x3519 (ite (= x_shift_period_905577_month 10) 273 (ite (= x_shift_period_905577_month 11) 304 334))))
 (let (($x597 (= x_shift_period_905577_month 9)))
 (let ((?x4762 (ite (= x_shift_period_905577_month 7) 181 (ite (= x_shift_period_905577_month 8) 212 (ite $x597 243 ?x3519)))))
 (let (($x2710 (= x_shift_period_905577_month 6)))
 (let (($x2360 (= x_shift_period_905577_month 4)))
 (let ((?x3033 (ite $x2360 90 (ite (= x_shift_period_905577_month 5) 120 (ite $x2710 151 ?x4762)))))
 (let (($x2753 (= x_shift_period_905577_month 3)))
 (let (($x3825 (= x_shift_period_905577_month 2)))
 (let ((?x1191 (ite (= x_shift_period_905577_month 1) 0 (ite $x3825 31 (ite $x2753 59 ?x3033)))))
 (let ((?x3047 (+ ?x1191 (ite (and $x828 (> x_shift_period_905577_month 2)) 1 0))))
 (let ((?x2632 (+ (* 365 (- x_shift_period_905577_year 1)) (div (- x_shift_period_905577_year 1) 4))))
 (let ((?x411 (+ (- ?x2632 (div (- x_shift_period_905577_year 1) 100)) (div (- x_shift_period_905577_year 1) 400))))
 (let (($x3828 (= x_shift_period_905577_epoch (+ (+ ?x411 ?x3047) (- x_shift_period_905577_day 1)))))
 (let (($x832 (<= x_shift_period_905577_year 2400)))
 (let (($x1691 (>= x_shift_period_905577_year 1600)))
 (let ((?x4144 (ite (or $x2360 $x2710 $x597 (= x_shift_period_905577_month 11)) 30 31)))
 (let (($x591 (>= x_shift_period_905577_day 1)))
 (let (($x800 (<= x_shift_period_905577_month 12)))
 (let (($x148 (>= x_shift_period_905577_month 1)))
 (and $x148 $x800 $x591 (<= x_shift_period_905577_day (ite $x3825 (ite $x828 29 28) ?x4144)) $x1691 $x832 $x3828)))))))))))))))))))))))))
(assert
 (let ((?x1306 (* 12 x_year)))
 (let ((?x2663 (+ ?x1306 (- x_month 1))))
 (let ((?x582 (+ ?x2663 1)))
 (let ((?x387 (div ?x582 12)))
 (= x_shift_period_905577_year ?x387))))))
(assert
 (let ((?x3810 (+ (mod (+ (+ (* 12 x_year) (- x_month 1)) 1) 12) 1)))
 (= x_shift_period_905577_month ?x3810)))
(assert
 (let ((?x3810 (+ (mod (+ (+ (* 12 x_year) (- x_month 1)) 1) 12) 1)))
 (let ((?x4607 (ite (or (= ?x3810 4) (= ?x3810 6) (= ?x3810 9) (= ?x3810 11)) 30 31)))
 (let ((?x1306 (* 12 x_year)))
 (let ((?x2663 (+ ?x1306 (- x_month 1))))
 (let ((?x582 (+ ?x2663 1)))
 (let ((?x387 (div ?x582 12)))
 (let (($x2085 (ite (= (mod ?x387 400) 0) true (ite (= (mod ?x387 100) 0) false (= (mod ?x387 4) 0)))))
 (let ((?x2463 (ite (= ?x3810 2) (ite $x2085 29 28) ?x4607)))
 (let ((?x2739 (ite (<= x_day ?x2463) x_day ?x2463)))
 (let (($x737 (= x_month 11)))
 (let (($x652 (= x_month 9)))
 (let (($x395 (= x_month 6)))
 (let (($x788 (= x_month 4)))
 (let ((?x564 (ite (or $x788 $x395 $x652 $x737) 30 31)))
 (let (($x672 (= (mod x_year 4) 0)))
 (let (($x356 (= (mod x_year 100) 0)))
 (let (($x938 (= (mod x_year 400) 0)))
 (let (($x1010 (ite $x938 true (ite $x356 false $x672))))
 (let (($x620 (= x_month 2)))
 (let ((?x889 (ite $x620 (ite $x1010 29 28) ?x564)))
 (let (($x242 (= x_day ?x889)))
 (= x_shift_period_905577_day (ite false (ite $x242 ?x2463 ?x2739) ?x2739))))))))))))))))))))))))
(assert
 (let (($x2753 (= x_shift_period_905577_month 3)))
(let (($x360 (= x_shift_period_905577_year 2023)))
(let (($x3561 (and $x360 $x2753 (<= x_shift_period_905577_day 1))))
(or (< x_shift_period_905577_year 2023) (and $x360 (< x_shift_period_905577_month 3)) $x3561)))))
(check-sat)
